\ Equation counts
\     Total        E        G        L        N        X        C        B
\	139	139	0	0
\
\ Variable counts
\                  x        b        i      s1s      s2s       sc       si
\     Total     cont   binary  integer     sos1     sos2    scont     sint
\	40	40

\ Nonzero counts
\     Total    const       NL      DLL
\
\
Minimize
 obj: [ - 10.5 x_1 * x_2 + 17.0 x_1 * x_3 - 1.5 x_1 * x_6 + 24.0 x_1 * x_8 - 21.5 x_1 * x_9 - 5.0 x_1 * x_10 - 8.0 x_1 * x_13 + 5.0 x_1 * x_14 + 13.0 x_1 * x_15 + 16.0 x_1 * x_16 - 1.0 x_1 * x_17 - 19.5 x_1 * x_19 + 7.5 x_1 * x_22 + 13.0 x_1 * x_23 + 23.5 x_1 * x_24 + 11.5 x_1 * x_25 - 11.5 x_1 * x_27 + 3.5 x_1 * x_28 + 6.5 x_1 * x_29 - 5.5 x_1 * x_30 - 18.0 x_1 * x_31 - 13.0 x_1 * x_32 + 10.5 x_1 * x_33 - 20.5 x_1 * x_35 - 22.0 x_1 * x_36 + 6.5 x_1 * x_37 + 13.0 x_1 * x_38 - 6.5 x_1 * x_39 - 10.5 x_2 * x_1 + 5.5 x_2 * x_3 - 22.5 x_2 * x_4 + 10.0 x_2 * x_5 + 24.5 x_2 * x_6 + 4.0 x_2 * x_7 + 21.0 x_2 * x_8 + 11.0 x_2 * x_9 - 22.0 x_2 * x_10 - 14.0 x_2 * x_12 - 13.0 x_2 * x_13 + 19.0 x_2 * x_14 + 16.0 x_2 * x_16 + 12.0 x_2 * x_17 - 19.5 x_2 * x_18 + 19.5 x_2 * x_19 + 7.0 x_2 * x_20 - 17.5 x_2 * x_21 - 20.0 x_2 * x_23 - 15.5 x_2 * x_24 - 10.0 x_2 * x_26 - 5.5 x_2 * x_28 + 4.0 x_2 * x_32 + 0.5 x_2 * x_33 - 7.0 x_2 * x_34 + 14.0 x_2 * x_36 + 20.0 x_2 * x_37 + 14.5 x_2 * x_38 - 16.5 x_2 * x_40 + 17.0 x_3 * x_1 + 5.5 x_3 * x_2 + 21.0 x_3 * x_3 + 13.5 x_3 * x_6 + 22.5 x_3 * x_7 + 17.0 x_3 * x_9 + 17.5 x_3 * x_12 + 3.0 x_3 * x_13 + 19.0 x_3 * x_14 + 3.5 x_3 * x_15 + 20.0 x_3 * x_16 + 4.5 x_3 * x_17 - 24.5 x_3 * x_20 - 13.5 x_3 * x_22 + 20.0 x_3 * x_23 + 10.0 x_3 * x_25 - 12.0 x_3 * x_26 + 23.0 x_3 * x_28 + 12.5 x_3 * x_29 - 11.0 x_3 * x_30 + 6.0 x_3 * x_31 - 17.5 x_3 * x_32 + 14.0 x_3 * x_34 + 13.0 x_3 * x_36 + 5.5 x_3 * x_37 + 15.5 x_3 * x_39 - 22.5 x_4 * x_2 - 16.5 x_4 * x_4 - 7.5 x_4 * x_6 - 4.0 x_4 * x_7 + 1.0 x_4 * x_8 - 6.0 x_4 * x_10 + 17.0 x_4 * x_11 + 1.0 x_4 * x_12 - 6.5 x_4 * x_14 - 17.5 x_4 * x_15 + 2.5 x_4 * x_16 - 1.5 x_4 * x_17 - 11.0 x_4 * x_18 + 22.0 x_4 * x_19 + 2.5 x_4 * x_20 + 4.0 x_4 * x_21 + 7.5 x_4 * x_22 + 24.5 x_4 * x_25 + 24.5 x_4 * x_26 + 8.5 x_4 * x_27 + 17.5 x_4 * x_29 + 24.5 x_4 * x_30 + 13.0 x_4 * x_31 - 15.0 x_4 * x_32 - 9.5 x_4 * x_33 + 24.5 x_4 * x_35 - 20.5 x_4 * x_36 - 19.0 x_4 * x_37 + 23.0 x_4 * x_40 + 10.0 x_5 * x_2 + 3.0 x_5 * x_6 + 0.5 x_5 * x_7 - 3.5 x_5 * x_8 - 5.0 x_5 * x_9 + 14.5 x_5 * x_10 - 1.0 x_5 * x_14 - 7.5 x_5 * x_15 - 10.0 x_5 * x_17 + 7.5 x_5 * x_18 + 17.0 x_5 * x_19 - 5.5 x_5 * x_20 + 2.0 x_5 * x_21 + 9.5 x_5 * x_25 - 18.5 x_5 * x_26 + 19.0 x_5 * x_27 - 4.5 x_5 * x_29 - 23.5 x_5 * x_30 + 23.5 x_5 * x_31 - 6.0 x_5 * x_32 - 22.5 x_5 * x_35 - 18.5 x_5 * x_36 - 7.0 x_5 * x_37 + 9.0 x_5 * x_39 - 5.5 x_5 * x_40 - 1.5 x_6 * x_1 + 24.5 x_6 * x_2 + 13.5 x_6 * x_3 - 7.5 x_6 * x_4 + 3.0 x_6 * x_5 + 2.0 x_6 * x_6 + 23.5 x_6 * x_7 - 7.5 x_6 * x_9 + 13.5 x_6 * x_12 + 8.5 x_6 * x_13 + 6.5 x_6 * x_14 + 7.5 x_6 * x_15 - 18.5 x_6 * x_17 + 10.0 x_6 * x_18 + 0.5 x_6 * x_23 - 24.0 x_6 * x_24 + 7.0 x_6 * x_25 + 22.5 x_6 * x_26 + 2.5 x_6 * x_28 - 2.5 x_6 * x_29 - 19.0 x_6 * x_38 - 11.0 x_6 * x_39 + 17.5 x_6 * x_40 + 4.0 x_7 * x_2 + 22.5 x_7 * x_3 - 4.0 x_7 * x_4 + 0.5 x_7 * x_5 + 23.5 x_7 * x_6 - 1.5 x_7 * x_7 + 22.5 x_7 * x_8 + 8.5 x_7 * x_10 + 23.5 x_7 * x_11 + 18.5 x_7 * x_13 + 18.5 x_7 * x_14 - 9.5 x_7 * x_16 - 1.0 x_7 * x_17 - 9.0 x_7 * x_18 - 18.0 x_7 * x_19 - 9.5 x_7 * x_21 - 4.0 x_7 * x_23 + 17.5 x_7 * x_24 - 16.5 x_7 * x_25 + 0.5 x_7 * x_26 + 13.0 x_7 * x_28 - 5.5 x_7 * x_30 + 24.0 x_7 * x_33 + 17.0 x_7 * x_35 - 13.5 x_7 * x_36 + 5.5 x_7 * x_37 - 17.0 x_7 * x_38 + 11.0 x_7 * x_40 + 24.0 x_8 * x_1 + 21.0 x_8 * x_2 + 1.0 x_8 * x_4 - 3.5 x_8 * x_5 + 22.5 x_8 * x_7 + 20.5 x_8 * x_8 - 20.5 x_8 * x_10 + 3.0 x_8 * x_14 - 6.0 x_8 * x_15 + 11.5 x_8 * x_17 + 8.0 x_8 * x_18 + 1.5 x_8 * x_20 + 24.0 x_8 * x_22 + 10.5 x_8 * x_23 + 24.0 x_8 * x_24 - 22.0 x_8 * x_25 - 12.0 x_8 * x_26 + 5.0 x_8 * x_27 + 10.0 x_8 * x_28 + 10.5 x_8 * x_31 - 11.5 x_8 * x_33 + 4.5 x_8 * x_34 - 19.5 x_8 * x_37 + 18.5 x_8 * x_38 - 21.5 x_9 * x_1 + 11.0 x_9 * x_2 + 17.0 x_9 * x_3 - 5.0 x_9 * x_5 - 7.5 x_9 * x_6 + 4.0 x_9 * x_9 + 1.5 x_9 * x_10 + 9.0 x_9 * x_11 - 14.5 x_9 * x_12 - 5.0 x_9 * x_14 + 14.5 x_9 * x_16 - 17.0 x_9 * x_19 + 15.5 x_9 * x_20 + 18.5 x_9 * x_21 + 24.5 x_9 * x_22 - 5.5 x_9 * x_23 - 6.0 x_9 * x_24 - 4.0 x_9 * x_25 - 22.0 x_9 * x_26 + 22.0 x_9 * x_27 + 13.5 x_9 * x_28 - 5.5 x_9 * x_31 - 13.5 x_9 * x_33 - 4.5 x_9 * x_36 - 19.0 x_9 * x_38 + 5.0 x_9 * x_39 + 18.5 x_9 * x_40 - 5.0 x_10 * x_1 - 22.0 x_10 * x_2 - 6.0 x_10 * x_4 + 14.5 x_10 * x_5 + 8.5 x_10 * x_7 - 20.5 x_10 * x_8 + 1.5 x_10 * x_9 - 12.5 x_10 * x_10 - 20.5 x_10 * x_11 - 4.0 x_10 * x_12 + 0.5 x_10 * x_13 - 9.0 x_10 * x_17 + 10.5 x_10 * x_20 - 14.0 x_10 * x_22 - 0.5 x_10 * x_24 + 7.0 x_10 * x_25 - 4.5 x_10 * x_26 - 22.0 x_10 * x_27 + 8.5 x_10 * x_28 + 3.0 x_10 * x_29 + 10.0 x_10 * x_31 - 1.5 x_10 * x_33 + 24.5 x_10 * x_35 - 20.0 x_10 * x_36 - 11.0 x_10 * x_38 + 23.5 x_10 * x_39 + 17.0 x_11 * x_4 + 23.5 x_11 * x_7 + 9.0 x_11 * x_9 - 20.5 x_11 * x_10 + 1.0 x_11 * x_11 + 20.5 x_11 * x_12 + 8.0 x_11 * x_13 - 21.0 x_11 * x_15 - 19.0 x_11 * x_18 - 3.0 x_11 * x_19 - 21.5 x_11 * x_20 + 8.0 x_11 * x_21 - 11.5 x_11 * x_24 - 10.0 x_11 * x_25 + 15.5 x_11 * x_27 + 0.5 x_11 * x_28 - 8.0 x_11 * x_31 + 1.0 x_11 * x_33 + 3.0 x_11 * x_35 + 7.0 x_11 * x_37 + 14.0 x_11 * x_38 + 18.5 x_11 * x_40 - 14.0 x_12 * x_2 + 17.5 x_12 * x_3 + 1.0 x_12 * x_4 + 13.5 x_12 * x_6 - 14.5 x_12 * x_9 - 4.0 x_12 * x_10 + 20.5 x_12 * x_11 + 7.0 x_12 * x_12 - 1.0 x_12 * x_13 + 20.0 x_12 * x_15 - 7.5 x_12 * x_16 - 22.5 x_12 * x_17 - 24.5 x_12 * x_18 - 20.0 x_12 * x_19 - 6.0 x_12 * x_21 + 8.0 x_12 * x_22 + 4.0 x_12 * x_23 + 5.0 x_12 * x_24 - 20.5 x_12 * x_26 + 18.0 x_12 * x_28 - 9.5 x_12 * x_32 - 8.0 x_12 * x_33 - 14.5 x_12 * x_35 - 7.0 x_12 * x_36 - 6.5 x_12 * x_37 + 1.0 x_12 * x_38 - 5.5 x_12 * x_39 + 5.0 x_12 * x_40 - 8.0 x_13 * x_1 - 13.0 x_13 * x_2 + 3.0 x_13 * x_3 + 8.5 x_13 * x_6 + 18.5 x_13 * x_7 + 0.5 x_13 * x_10 + 8.0 x_13 * x_11 - 1.0 x_13 * x_12 + 8.5 x_13 * x_13 + 8.5 x_13 * x_14 + 4.0 x_13 * x_16 + 8.0 x_13 * x_17 + 2.0 x_13 * x_20 - 9.0 x_13 * x_23 + 23.0 x_13 * x_24 - 10.0 x_13 * x_25 - 19.5 x_13 * x_26 + 6.0 x_13 * x_27 + 10.5 x_13 * x_28 + 17.5 x_13 * x_29 - 6.0 x_13 * x_30 + 8.0 x_13 * x_33 - 21.0 x_13 * x_34 + 12.5 x_13 * x_36 - 3.5 x_13 * x_37 + 17.5 x_13 * x_38 - 20.0 x_13 * x_39 + 20.0 x_13 * x_40 + 5.0 x_14 * x_1 + 19.0 x_14 * x_2 + 19.0 x_14 * x_3 - 6.5 x_14 * x_4 - 1.0 x_14 * x_5 + 6.5 x_14 * x_6 + 18.5 x_14 * x_7 + 3.0 x_14 * x_8 - 5.0 x_14 * x_9 + 8.5 x_14 * x_13 - 18.5 x_14 * x_14 + 21.5 x_14 * x_15 + 21.5 x_14 * x_17 - 13.0 x_14 * x_18 - 17.0 x_14 * x_19 + 8.5 x_14 * x_20 - 3.0 x_14 * x_22 + 8.5 x_14 * x_23 + 13.5 x_14 * x_25 + 3.0 x_14 * x_27 + 20.0 x_14 * x_28 + 21.5 x_14 * x_30 + 21.0 x_14 * x_31 + 24.5 x_14 * x_33 + 11.5 x_14 * x_34 + 21.0 x_14 * x_35 - 14.0 x_14 * x_36 + 9.5 x_14 * x_37 + 15.0 x_14 * x_39 + 13.0 x_15 * x_1 + 3.5 x_15 * x_3 - 17.5 x_15 * x_4 - 7.5 x_15 * x_5 + 7.5 x_15 * x_6 - 6.0 x_15 * x_8 - 21.0 x_15 * x_11 + 20.0 x_15 * x_12 + 21.5 x_15 * x_14 - 12.5 x_15 * x_16 - 20.5 x_15 * x_17 + 1.5 x_15 * x_18 - 18.5 x_15 * x_19 + 16.0 x_15 * x_22 - 16.0 x_15 * x_23 - 7.0 x_15 * x_26 + 6.5 x_15 * x_27 + 21.0 x_15 * x_28 - 11.0 x_15 * x_29 - 16.5 x_15 * x_30 + 8.0 x_15 * x_31 + 9.5 x_15 * x_32 + 16.5 x_15 * x_33 - 4.0 x_15 * x_34 - 3.0 x_15 * x_35 - 7.5 x_15 * x_36 + 5.0 x_15 * x_37 - 13.0 x_15 * x_39 + 16.0 x_16 * x_1 + 16.0 x_16 * x_2 + 20.0 x_16 * x_3 + 2.5 x_16 * x_4 - 9.5 x_16 * x_7 + 14.5 x_16 * x_9 - 7.5 x_16 * x_12 + 4.0 x_16 * x_13 - 12.5 x_16 * x_15 + 14.5 x_16 * x_16 + 18.0 x_16 * x_17 + 16.0 x_16 * x_18 + 19.5 x_16 * x_19 + 16.5 x_16 * x_21 + 17.5 x_16 * x_22 + 13.0 x_16 * x_23 - 10.0 x_16 * x_25 + 1.5 x_16 * x_26 - 13.0 x_16 * x_27 + 11.0 x_16 * x_31 - 18.0 x_16 * x_32 + 17.5 x_16 * x_33 - 2.5 x_16 * x_34 - 8.0 x_16 * x_36 + 20.0 x_16 * x_37 - 4.5 x_16 * x_38 + 12.0 x_16 * x_39 - 1.0 x_17 * x_1 + 12.0 x_17 * x_2 + 4.5 x_17 * x_3 - 1.5 x_17 * x_4 - 10.0 x_17 * x_5 - 18.5 x_17 * x_6 - 1.0 x_17 * x_7 + 11.5 x_17 * x_8 - 9.0 x_17 * x_10 - 22.5 x_17 * x_12 + 8.0 x_17 * x_13 + 21.5 x_17 * x_14 - 20.5 x_17 * x_15 + 18.0 x_17 * x_16 + 3.0 x_17 * x_17 + 17.5 x_17 * x_18 - 17.5 x_17 * x_19 + 8.0 x_17 * x_20 - 17.5 x_17 * x_21 + 17.5 x_17 * x_25 + 9.5 x_17 * x_26 - 7.5 x_17 * x_27 + 10.5 x_17 * x_29 - 22.0 x_17 * x_30 - 9.5 x_17 * x_32 + 24.5 x_17 * x_34 - 24.0 x_17 * x_35 - 8.0 x_17 * x_36 + 12.0 x_17 * x_37 + 23.0 x_17 * x_38 - 14.0 x_17 * x_39 - 5.0 x_17 * x_40 - 19.5 x_18 * x_2 - 11.0 x_18 * x_4 + 7.5 x_18 * x_5 + 10.0 x_18 * x_6 - 9.0 x_18 * x_7 + 8.0 x_18 * x_8 - 19.0 x_18 * x_11 - 24.5 x_18 * x_12 - 13.0 x_18 * x_14 + 1.5 x_18 * x_15 + 16.0 x_18 * x_16 + 17.5 x_18 * x_17 + 23.5 x_18 * x_18 + 22.0 x_18 * x_19 + 15.0 x_18 * x_20 + 23.5 x_18 * x_21 - 5.5 x_18 * x_24 + 6.5 x_18 * x_25 - 17.0 x_18 * x_26 - 6.5 x_18 * x_27 - 19.5 x_18 * x_28 + 5.0 x_18 * x_29 - 2.5 x_18 * x_30 + 20.5 x_18 * x_32 + 24.5 x_18 * x_34 + 5.0 x_18 * x_35 - 18.0 x_18 * x_36 + 10.5 x_18 * x_37 - 12.5 x_18 * x_39 + 21.5 x_18 * x_40 - 19.5 x_19 * x_1 + 19.5 x_19 * x_2 + 22.0 x_19 * x_4 + 17.0 x_19 * x_5 - 18.0 x_19 * x_7 - 17.0 x_19 * x_9 - 3.0 x_19 * x_11 - 20.0 x_19 * x_12 - 17.0 x_19 * x_14 - 18.5 x_19 * x_15 + 19.5 x_19 * x_16 - 17.5 x_19 * x_17 + 22.0 x_19 * x_18 + 15.0 x_19 * x_19 + 16.5 x_19 * x_20 - 19.5 x_19 * x_21 + 22.5 x_19 * x_22 - 19.0 x_19 * x_23 + 15.0 x_19 * x_24 + 16.5 x_19 * x_25 + 7.5 x_19 * x_28 - 14.5 x_19 * x_29 + 3.0 x_19 * x_31 - 3.0 x_19 * x_32 + 7.0 x_19 * x_34 - 7.0 x_19 * x_36 - 5.0 x_19 * x_38 - 19.0 x_19 * x_40 + 7.0 x_20 * x_2 - 24.5 x_20 * x_3 + 2.5 x_20 * x_4 - 5.5 x_20 * x_5 + 1.5 x_20 * x_8 + 15.5 x_20 * x_9 + 10.5 x_20 * x_10 - 21.5 x_20 * x_11 + 2.0 x_20 * x_13 + 8.5 x_20 * x_14 + 8.0 x_20 * x_17 + 15.0 x_20 * x_18 + 16.5 x_20 * x_19 - 8.5 x_20 * x_21 - 18.0 x_20 * x_22 - 15.5 x_20 * x_23 + 14.5 x_20 * x_25 + 5.0 x_20 * x_26 - 8.5 x_20 * x_27 + 19.0 x_20 * x_28 - 13.0 x_20 * x_29 - 13.5 x_20 * x_30 + 14.0 x_20 * x_31 + 18.0 x_20 * x_33 - 7.5 x_20 * x_34 + 13.5 x_20 * x_35 - 22.5 x_20 * x_36 + 1.5 x_20 * x_37 + 14.0 x_20 * x_38 - 17.5 x_21 * x_2 + 4.0 x_21 * x_4 + 2.0 x_21 * x_5 - 9.5 x_21 * x_7 + 18.5 x_21 * x_9 + 8.0 x_21 * x_11 - 6.0 x_21 * x_12 + 16.5 x_21 * x_16 - 17.5 x_21 * x_17 + 23.5 x_21 * x_18 - 19.5 x_21 * x_19 - 8.5 x_21 * x_20 + 17.5 x_21 * x_21 + 16.0 x_21 * x_22 + 1.0 x_21 * x_25 + 23.5 x_21 * x_27 - 13.0 x_21 * x_30 - 22.0 x_21 * x_31 - 7.0 x_21 * x_34 + 16.5 x_21 * x_35 - 15.0 x_21 * x_38 + 22.5 x_21 * x_39 + 0.5 x_21 * x_40 + 7.5 x_22 * x_1 - 13.5 x_22 * x_3 + 7.5 x_22 * x_4 + 24.0 x_22 * x_8 + 24.5 x_22 * x_9 - 14.0 x_22 * x_10 + 8.0 x_22 * x_12 - 3.0 x_22 * x_14 + 16.0 x_22 * x_15 + 17.5 x_22 * x_16 + 22.5 x_22 * x_19 - 18.0 x_22 * x_20 + 16.0 x_22 * x_21 + 4.0 x_22 * x_22 + 23.5 x_22 * x_23 - 13.5 x_22 * x_24 - 14.0 x_22 * x_25 + 19.5 x_22 * x_26 - 3.0 x_22 * x_27 + 10.5 x_22 * x_29 + 24.5 x_22 * x_30 - 8.5 x_22 * x_31 - 24.5 x_22 * x_32 - 1.0 x_22 * x_33 + 17.0 x_22 * x_35 + 16.0 x_22 * x_39 + 13.0 x_23 * x_1 - 20.0 x_23 * x_2 + 20.0 x_23 * x_3 + 0.5 x_23 * x_6 - 4.0 x_23 * x_7 + 10.5 x_23 * x_8 - 5.5 x_23 * x_9 + 4.0 x_23 * x_12 - 9.0 x_23 * x_13 + 8.5 x_23 * x_14 - 16.0 x_23 * x_15 + 13.0 x_23 * x_16 - 19.0 x_23 * x_19 - 15.5 x_23 * x_20 + 23.5 x_23 * x_22 - 22.0 x_23 * x_23 + 15.0 x_23 * x_24 - 21.0 x_23 * x_25 + 5.5 x_23 * x_26 - 8.5 x_23 * x_27 + 5.5 x_23 * x_28 - 0.5 x_23 * x_29 - 24.5 x_23 * x_31 - 24.5 x_23 * x_32 - 18.5 x_23 * x_33 - 20.0 x_23 * x_34 - 23.0 x_23 * x_37 + 8.5 x_23 * x_38 + 5.0 x_23 * x_39 + 23.5 x_24 * x_1 - 15.5 x_24 * x_2 - 24.0 x_24 * x_6 + 17.5 x_24 * x_7 + 24.0 x_24 * x_8 - 6.0 x_24 * x_9 - 0.5 x_24 * x_10 - 11.5 x_24 * x_11 + 5.0 x_24 * x_12 + 23.0 x_24 * x_13 - 5.5 x_24 * x_18 + 15.0 x_24 * x_19 - 13.5 x_24 * x_22 + 15.0 x_24 * x_23 - 11.5 x_24 * x_24 - 22.5 x_24 * x_25 + 1.5 x_24 * x_26 + 16.0 x_24 * x_28 - 20.0 x_24 * x_29 + 19.5 x_24 * x_30 - 18.5 x_24 * x_32 - 20.5 x_24 * x_34 + 3.5 x_24 * x_35 - 17.0 x_24 * x_36 - 13.0 x_24 * x_38 - 7.5 x_24 * x_39 + 11.5 x_24 * x_40 + 11.5 x_25 * x_1 + 10.0 x_25 * x_3 + 24.5 x_25 * x_4 + 9.5 x_25 * x_5 + 7.0 x_25 * x_6 - 16.5 x_25 * x_7 - 22.0 x_25 * x_8 - 4.0 x_25 * x_9 + 7.0 x_25 * x_10 - 10.0 x_25 * x_11 - 10.0 x_25 * x_13 + 13.5 x_25 * x_14 - 10.0 x_25 * x_16 + 17.5 x_25 * x_17 + 6.5 x_25 * x_18 + 16.5 x_25 * x_19 + 14.5 x_25 * x_20 + 1.0 x_25 * x_21 - 14.0 x_25 * x_22 - 21.0 x_25 * x_23 - 22.5 x_25 * x_24 + 2.5 x_25 * x_25 - 22.0 x_25 * x_26 - 18.5 x_25 * x_29 + 5.5 x_25 * x_31 - 3.0 x_25 * x_32 - 22.0 x_25 * x_33 - 20.5 x_25 * x_34 + 14.0 x_25 * x_35 + 19.5 x_25 * x_36 - 4.0 x_25 * x_38 + 12.5 x_25 * x_39 - 10.0 x_26 * x_2 - 12.0 x_26 * x_3 + 24.5 x_26 * x_4 - 18.5 x_26 * x_5 + 22.5 x_26 * x_6 + 0.5 x_26 * x_7 - 12.0 x_26 * x_8 - 22.0 x_26 * x_9 - 4.5 x_26 * x_10 - 20.5 x_26 * x_12 - 19.5 x_26 * x_13 - 7.0 x_26 * x_15 + 1.5 x_26 * x_16 + 9.5 x_26 * x_17 - 17.0 x_26 * x_18 + 5.0 x_26 * x_20 + 19.5 x_26 * x_22 + 5.5 x_26 * x_23 + 1.5 x_26 * x_24 - 22.0 x_26 * x_25 + 11.5 x_26 * x_26 - 9.5 x_26 * x_27 - 13.0 x_26 * x_29 - 6.5 x_26 * x_31 - 15.0 x_26 * x_32 + 8.5 x_26 * x_34 + 12.0 x_26 * x_37 - 10.0 x_26 * x_38 - 12.5 x_26 * x_39 + 8.5 x_26 * x_40 - 11.5 x_27 * x_1 + 8.5 x_27 * x_4 + 19.0 x_27 * x_5 + 5.0 x_27 * x_8 + 22.0 x_27 * x_9 - 22.0 x_27 * x_10 + 15.5 x_27 * x_11 + 6.0 x_27 * x_13 + 3.0 x_27 * x_14 + 6.5 x_27 * x_15 - 13.0 x_27 * x_16 - 7.5 x_27 * x_17 - 6.5 x_27 * x_18 - 8.5 x_27 * x_20 + 23.5 x_27 * x_21 - 3.0 x_27 * x_22 - 8.5 x_27 * x_23 - 9.5 x_27 * x_26 - 9.0 x_27 * x_27 - 23.0 x_27 * x_30 - 23.5 x_27 * x_34 - 0.5 x_27 * x_35 + 6.5 x_27 * x_36 + 12.0 x_27 * x_37 + 5.0 x_27 * x_38 + 21.5 x_27 * x_39 - 8.5 x_27 * x_40 + 3.5 x_28 * x_1 - 5.5 x_28 * x_2 + 23.0 x_28 * x_3 + 2.5 x_28 * x_6 + 13.0 x_28 * x_7 + 10.0 x_28 * x_8 + 13.5 x_28 * x_9 + 8.5 x_28 * x_10 + 0.5 x_28 * x_11 + 18.0 x_28 * x_12 + 10.5 x_28 * x_13 + 20.0 x_28 * x_14 + 21.0 x_28 * x_15 - 19.5 x_28 * x_18 + 7.5 x_28 * x_19 + 19.0 x_28 * x_20 + 5.5 x_28 * x_23 + 16.0 x_28 * x_24 + 15.0 x_28 * x_28 - 15.0 x_28 * x_29 + 4.5 x_28 * x_31 + 2.0 x_28 * x_32 + 7.0 x_28 * x_34 - 20.5 x_28 * x_36 + 21.0 x_28 * x_37 - 24.5 x_28 * x_38 + 6.5 x_29 * x_1 + 12.5 x_29 * x_3 + 17.5 x_29 * x_4 - 4.5 x_29 * x_5 - 2.5 x_29 * x_6 + 3.0 x_29 * x_10 + 17.5 x_29 * x_13 - 11.0 x_29 * x_15 + 10.5 x_29 * x_17 + 5.0 x_29 * x_18 - 14.5 x_29 * x_19 - 13.0 x_29 * x_20 + 10.5 x_29 * x_22 - 0.5 x_29 * x_23 - 20.0 x_29 * x_24 - 18.5 x_29 * x_25 - 13.0 x_29 * x_26 - 15.0 x_29 * x_28 + 24.5 x_29 * x_29 - 24.5 x_29 * x_31 - 0.5 x_29 * x_32 + 14.0 x_29 * x_35 - 13.5 x_29 * x_36 + 19.5 x_29 * x_38 + 9.0 x_29 * x_39 - 14.0 x_29 * x_40 - 5.5 x_30 * x_1 - 11.0 x_30 * x_3 + 24.5 x_30 * x_4 - 23.5 x_30 * x_5 - 5.5 x_30 * x_7 - 6.0 x_30 * x_13 + 21.5 x_30 * x_14 - 16.5 x_30 * x_15 - 22.0 x_30 * x_17 - 2.5 x_30 * x_18 - 13.5 x_30 * x_20 - 13.0 x_30 * x_21 + 24.5 x_30 * x_22 + 19.5 x_30 * x_24 - 23.0 x_30 * x_27 - 9.5 x_30 * x_30 - 19.0 x_30 * x_31 + 8.0 x_30 * x_32 - 23.0 x_30 * x_34 - 12.5 x_30 * x_36 - 5.0 x_30 * x_38 - 11.0 x_30 * x_40 - 18.0 x_31 * x_1 + 6.0 x_31 * x_3 + 13.0 x_31 * x_4 + 23.5 x_31 * x_5 + 10.5 x_31 * x_8 - 5.5 x_31 * x_9 + 10.0 x_31 * x_10 - 8.0 x_31 * x_11 + 21.0 x_31 * x_14 + 8.0 x_31 * x_15 + 11.0 x_31 * x_16 + 3.0 x_31 * x_19 + 14.0 x_31 * x_20 - 22.0 x_31 * x_21 - 8.5 x_31 * x_22 - 24.5 x_31 * x_23 + 5.5 x_31 * x_25 - 6.5 x_31 * x_26 + 4.5 x_31 * x_28 - 24.5 x_31 * x_29 - 19.0 x_31 * x_30 + 1.0 x_31 * x_31 + 6.5 x_31 * x_33 + 23.5 x_31 * x_34 + 13.5 x_31 * x_36 + 2.0 x_31 * x_37 - 6.5 x_31 * x_38 - 22.0 x_31 * x_39 + 13.0 x_31 * x_40 - 13.0 x_32 * x_1 + 4.0 x_32 * x_2 - 17.5 x_32 * x_3 - 15.0 x_32 * x_4 - 6.0 x_32 * x_5 - 9.5 x_32 * x_12 + 9.5 x_32 * x_15 - 18.0 x_32 * x_16 - 9.5 x_32 * x_17 + 20.5 x_32 * x_18 - 3.0 x_32 * x_19 - 24.5 x_32 * x_22 - 24.5 x_32 * x_23 - 18.5 x_32 * x_24 - 3.0 x_32 * x_25 - 15.0 x_32 * x_26 + 2.0 x_32 * x_28 - 0.5 x_32 * x_29 + 8.0 x_32 * x_30 + 10.5 x_32 * x_32 + 3.0 x_32 * x_33 + 23.0 x_32 * x_35 + 8.0 x_32 * x_37 - 1.0 x_32 * x_39 + 8.5 x_32 * x_40 + 10.5 x_33 * x_1 + 0.5 x_33 * x_2 - 9.5 x_33 * x_4 + 24.0 x_33 * x_7 - 11.5 x_33 * x_8 - 13.5 x_33 * x_9 - 1.5 x_33 * x_10 + 1.0 x_33 * x_11 - 8.0 x_33 * x_12 + 8.0 x_33 * x_13 + 24.5 x_33 * x_14 + 16.5 x_33 * x_15 + 17.5 x_33 * x_16 + 18.0 x_33 * x_20 - 1.0 x_33 * x_22 - 18.5 x_33 * x_23 - 22.0 x_33 * x_25 + 6.5 x_33 * x_31 + 3.0 x_33 * x_32 + 24.0 x_33 * x_33 - 11.5 x_33 * x_34 - 9.0 x_33 * x_36 - 15.5 x_33 * x_37 - 21.0 x_33 * x_38 + 3.0 x_33 * x_39 - 7.0 x_34 * x_2 + 14.0 x_34 * x_3 + 4.5 x_34 * x_8 - 21.0 x_34 * x_13 + 11.5 x_34 * x_14 - 4.0 x_34 * x_15 - 2.5 x_34 * x_16 + 24.5 x_34 * x_17 + 24.5 x_34 * x_18 + 7.0 x_34 * x_19 - 7.5 x_34 * x_20 - 7.0 x_34 * x_21 - 20.0 x_34 * x_23 - 20.5 x_34 * x_24 - 20.5 x_34 * x_25 + 8.5 x_34 * x_26 - 23.5 x_34 * x_27 + 7.0 x_34 * x_28 - 23.0 x_34 * x_30 + 23.5 x_34 * x_31 - 11.5 x_34 * x_33 + 16.0 x_34 * x_34 - 18.5 x_34 * x_36 - 16.5 x_34 * x_37 - 7.5 x_34 * x_38 - 20.5 x_35 * x_1 + 24.5 x_35 * x_4 - 22.5 x_35 * x_5 + 17.0 x_35 * x_7 + 24.5 x_35 * x_10 + 3.0 x_35 * x_11 - 14.5 x_35 * x_12 + 21.0 x_35 * x_14 - 3.0 x_35 * x_15 - 24.0 x_35 * x_17 + 5.0 x_35 * x_18 + 13.5 x_35 * x_20 + 16.5 x_35 * x_21 + 17.0 x_35 * x_22 + 3.5 x_35 * x_24 + 14.0 x_35 * x_25 - 0.5 x_35 * x_27 + 14.0 x_35 * x_29 + 23.0 x_35 * x_32 + 19.0 x_35 * x_37 + 3.5 x_35 * x_38 - 21.5 x_35 * x_39 - 17.5 x_35 * x_40 - 22.0 x_36 * x_1 + 14.0 x_36 * x_2 + 13.0 x_36 * x_3 - 20.5 x_36 * x_4 - 18.5 x_36 * x_5 - 13.5 x_36 * x_7 - 4.5 x_36 * x_9 - 20.0 x_36 * x_10 - 7.0 x_36 * x_12 + 12.5 x_36 * x_13 - 14.0 x_36 * x_14 - 7.5 x_36 * x_15 - 8.0 x_36 * x_16 - 8.0 x_36 * x_17 - 18.0 x_36 * x_18 - 7.0 x_36 * x_19 - 22.5 x_36 * x_20 - 17.0 x_36 * x_24 + 19.5 x_36 * x_25 + 6.5 x_36 * x_27 - 20.5 x_36 * x_28 - 13.5 x_36 * x_29 - 12.5 x_36 * x_30 + 13.5 x_36 * x_31 - 9.0 x_36 * x_33 - 18.5 x_36 * x_34 + 4.0 x_36 * x_36 + 8.0 x_36 * x_37 - 5.0 x_36 * x_38 - 18.5 x_36 * x_40 + 6.5 x_37 * x_1 + 20.0 x_37 * x_2 + 5.5 x_37 * x_3 - 19.0 x_37 * x_4 - 7.0 x_37 * x_5 + 5.5 x_37 * x_7 - 19.5 x_37 * x_8 + 7.0 x_37 * x_11 - 6.5 x_37 * x_12 - 3.5 x_37 * x_13 + 9.5 x_37 * x_14 + 5.0 x_37 * x_15 + 20.0 x_37 * x_16 + 12.0 x_37 * x_17 + 10.5 x_37 * x_18 + 1.5 x_37 * x_20 - 23.0 x_37 * x_23 + 12.0 x_37 * x_26 + 12.0 x_37 * x_27 + 21.0 x_37 * x_28 + 2.0 x_37 * x_31 + 8.0 x_37 * x_32 - 15.5 x_37 * x_33 - 16.5 x_37 * x_34 + 19.0 x_37 * x_35 + 8.0 x_37 * x_36 + 6.0 x_37 * x_37 - 4.5 x_37 * x_38 - 5.0 x_37 * x_40 + 13.0 x_38 * x_1 + 14.5 x_38 * x_2 - 19.0 x_38 * x_6 - 17.0 x_38 * x_7 + 18.5 x_38 * x_8 - 19.0 x_38 * x_9 - 11.0 x_38 * x_10 + 14.0 x_38 * x_11 + 1.0 x_38 * x_12 + 17.5 x_38 * x_13 - 4.5 x_38 * x_16 + 23.0 x_38 * x_17 - 5.0 x_38 * x_19 + 14.0 x_38 * x_20 - 15.0 x_38 * x_21 + 8.5 x_38 * x_23 - 13.0 x_38 * x_24 - 4.0 x_38 * x_25 - 10.0 x_38 * x_26 + 5.0 x_38 * x_27 - 24.5 x_38 * x_28 + 19.5 x_38 * x_29 - 5.0 x_38 * x_30 - 6.5 x_38 * x_31 - 21.0 x_38 * x_33 - 7.5 x_38 * x_34 + 3.5 x_38 * x_35 - 5.0 x_38 * x_36 - 4.5 x_38 * x_37 + 11.5 x_38 * x_38 + 7.5 x_38 * x_40 - 6.5 x_39 * x_1 + 15.5 x_39 * x_3 + 9.0 x_39 * x_5 - 11.0 x_39 * x_6 + 5.0 x_39 * x_9 + 23.5 x_39 * x_10 - 5.5 x_39 * x_12 - 20.0 x_39 * x_13 + 15.0 x_39 * x_14 - 13.0 x_39 * x_15 + 12.0 x_39 * x_16 - 14.0 x_39 * x_17 - 12.5 x_39 * x_18 + 22.5 x_39 * x_21 + 16.0 x_39 * x_22 + 5.0 x_39 * x_23 - 7.5 x_39 * x_24 + 12.5 x_39 * x_25 - 12.5 x_39 * x_26 + 21.5 x_39 * x_27 + 9.0 x_39 * x_29 - 22.0 x_39 * x_31 - 1.0 x_39 * x_32 + 3.0 x_39 * x_33 - 21.5 x_39 * x_35 + 5.5 x_39 * x_39 + 24.0 x_39 * x_40 - 16.5 x_40 * x_2 + 23.0 x_40 * x_4 - 5.5 x_40 * x_5 + 17.5 x_40 * x_6 + 11.0 x_40 * x_7 + 18.5 x_40 * x_9 + 18.5 x_40 * x_11 + 5.0 x_40 * x_12 + 20.0 x_40 * x_13 - 5.0 x_40 * x_17 + 21.5 x_40 * x_18 - 19.0 x_40 * x_19 + 0.5 x_40 * x_21 + 11.5 x_40 * x_24 + 8.5 x_40 * x_26 - 8.5 x_40 * x_27 - 14.0 x_40 * x_29 - 11.0 x_40 * x_30 + 13.0 x_40 * x_31 + 8.5 x_40 * x_32 - 17.5 x_40 * x_35 - 18.5 x_40 * x_36 - 5.0 x_40 * x_37 + 7.5 x_40 * x_38 + 24.0 x_40 * x_39 + 22.0 x_40 * x_40 ] - 13.0 x_1 + 27.0 x_2 + 0.0 x_3 - 36.0 x_4 + 34.0 x_5 + 43.0 x_6 + 0.0 x_7 + 16.0 x_8 + 0.0 x_9 + 11.0 x_10 - 31.0 x_11 - 36.0 x_12 + 0.0 x_13 + 0.0 x_14 + 0.0 x_15 + 17.0 x_16 + 11.0 x_17 + 0.0 x_18 - 35.0 x_19 + 6.0 x_20 + 0.0 x_21 - 34.0 x_22 + 0.0 x_23 - 3.0 x_24 - 22.0 x_25 + 0.0 x_26 + 29.0 x_27 + 0.0 x_28 - 20.0 x_29 - 7.0 x_30 - 6.0 x_31 - 16.0 x_32 - 16.0 x_33 + 34.0 x_34 + 0.0 x_35 + 36.0 x_36 + 21.0 x_37 - 11.0 x_38 + 29.0 x_39 + 43.0 x_40

Subject To
 e2: [  x_1 * x_2 ] = 0.0
 e3: [  x_1 * x_3 ] = 0.0
 e4: [  x_1 * x_8 ] = 0.0
 e5: [  x_1 * x_10 ] = 0.0
 e6: [  x_1 * x_23 ] = 0.0
 e7: [  x_1 * x_25 ] = 0.0
 e8: [  x_1 * x_28 ] = 0.0
 e9: [  x_1 * x_32 ] = 0.0
 e10: [  x_1 * x_36 ] = 0.0
 e11: [  x_2 * x_24 ] = 0.0
 e12: [  x_2 * x_40 ] = 0.0
 e13: [  x_3 * x_7 ] = 0.0
 e14: [  x_3 * x_12 ] = 0.0
 e15: [  x_3 * x_34 ] = 0.0
 e16: [  x_4 * x_8 ] = 0.0
 e17: [  x_4 * x_10 ] = 0.0
 e18: [  x_4 * x_12 ] = 0.0
 e19: [  x_4 * x_15 ] = 0.0
 e20: [  x_4 * x_17 ] = 0.0
 e21: [  x_4 * x_40 ] = 0.0
 e22: [  x_5 * x_6 ] = 0.0
 e23: [  x_5 * x_27 ] = 0.0
 e24: [  x_6 * x_1 ] = 0.0
 e25: [  x_6 * x_25 ] = 0.0
 e26: [  x_7 * x_2 ] = 0.0
 e27: [  x_7 * x_37 ] = 0.0
 e28: [  x_7 * x_38 ] = 0.0
 e29: [  x_8 * x_18 ] = 0.0
 e30: [  x_8 * x_28 ] = 0.0
 e31: [  x_8 * x_38 ] = 0.0
 e32: [  x_9 * x_2 ] = 0.0
 e33: [  x_9 * x_24 ] = 0.0
 e34: [  x_9 * x_28 ] = 0.0
 e35: [  x_10 * x_13 ] = 0.0
 e36: [  x_10 * x_28 ] = 0.0
 e37: [  x_11 * x_7 ] = 0.0
 e38: [  x_11 * x_15 ] = 0.0
 e39: [  x_11 * x_21 ] = 0.0
 e40: [  x_11 * x_38 ] = 0.0
 e41: [  x_12 * x_2 ] = 0.0
 e42: [  x_12 * x_4 ] = 0.0
 e43: [  x_12 * x_10 ] = 0.0
 e44: [  x_12 * x_18 ] = 0.0
 e45: [  x_12 * x_23 ] = 0.0
 e46: [  x_12 * x_40 ] = 0.0
 e47: [  x_13 * x_12 ] = 0.0
 e48: [  x_13 * x_20 ] = 0.0
 e49: [  x_13 * x_27 ] = 0.0
 e50: [  x_13 * x_37 ] = 0.0
 e51: [  x_13 * x_39 ] = 0.0
 e52: [  x_13 * x_40 ] = 0.0
 e53: [  x_14 * x_5 ] = 0.0
 e54: [  x_14 * x_8 ] = 0.0
 e55: [  x_14 * x_22 ] = 0.0
 e56: [  x_14 * x_23 ] = 0.0
 e57: [  x_14 * x_31 ] = 0.0
 e58: [  x_14 * x_33 ] = 0.0
 e59: [  x_15 * x_23 ] = 0.0
 e60: [  x_15 * x_29 ] = 0.0
 e61: [  x_15 * x_33 ] = 0.0
 e62: [  x_15 * x_39 ] = 0.0
 e63: [  x_16 * x_13 ] = 0.0
 e64: [  x_16 * x_22 ] = 0.0
 e65: [  x_16 * x_31 ] = 0.0
 e66: [  x_16 * x_32 ] = 0.0
 e67: [  x_17 * x_1 ] = 0.0
 e68: [  x_17 * x_13 ] = 0.0
 e69: [  x_17 * x_14 ] = 0.0
 e70: [  x_17 * x_15 ] = 0.0
 e71: [  x_17 * x_27 ] = 0.0
 e72: [  x_18 * x_2 ] = 0.0
 e73: [  x_18 * x_4 ] = 0.0
 e74: [  x_18 * x_18 ] = 0.0
 e75: [  x_18 * x_35 ] = 0.0
 e76: [  x_19 * x_9 ] = 0.0
 e77: [  x_19 * x_11 ] = 0.0
 e78: [  x_19 * x_15 ] = 0.0
 e79: [  x_19 * x_19 ] = 0.0
 e80: [  x_19 * x_34 ] = 0.0
 e81: [  x_19 * x_36 ] = 0.0
 e82: [  x_21 * x_21 ] = 0.0
 e83: [  x_21 * x_25 ] = 0.0
 e84: [  x_23 * x_7 ] = 0.0
 e85: [  x_23 * x_27 ] = 0.0
 e86: [  x_23 * x_28 ] = 0.0
 e87: [  x_24 * x_7 ] = 0.0
 e88: [  x_24 * x_26 ] = 0.0
 e89: [  x_24 * x_29 ] = 0.0
 e90: [  x_24 * x_34 ] = 0.0
 e91: [  x_24 * x_39 ] = 0.0
 e92: [  x_25 * x_9 ] = 0.0
 e93: [  x_25 * x_23 ] = 0.0
 e94: [  x_25 * x_24 ] = 0.0
 e95: [  x_25 * x_34 ] = 0.0
 e96: [  x_25 * x_36 ] = 0.0
 e97: [  x_26 * x_2 ] = 0.0
 e98: [  x_26 * x_34 ] = 0.0
 e99: [  x_26 * x_39 ] = 0.0
 e100: [  x_27 * x_10 ] = 0.0
 e101: [  x_27 * x_26 ] = 0.0
 e102: [  x_27 * x_30 ] = 0.0
 e103: [  x_28 * x_11 ] = 0.0
 e104: [  x_28 * x_18 ] = 0.0
 e105: [  x_28 * x_28 ] = 0.0
 e106: [  x_28 * x_32 ] = 0.0
 e107: [  x_28 * x_37 ] = 0.0
 e108: [  x_29 * x_1 ] = 0.0
 e109: [  x_30 * x_4 ] = 0.0
 e110: [  x_30 * x_13 ] = 0.0
 e111: [  x_30 * x_30 ] = 0.0
 e112: [  x_31 * x_1 ] = 0.0
 e113: [  x_31 * x_4 ] = 0.0
 e114: [  x_31 * x_9 ] = 0.0
 e115: [  x_31 * x_39 ] = 0.0
 e116: [  x_31 * x_40 ] = 0.0
 e117: [  x_32 * x_37 ] = 0.0
 e118: [  x_33 * x_15 ] = 0.0
 e119: [  x_33 * x_16 ] = 0.0
 e120: [  x_34 * x_19 ] = 0.0
 e121: [  x_34 * x_27 ] = 0.0
 e122: [  x_34 * x_33 ] = 0.0
 e123: [  x_35 * x_10 ] = 0.0
 e124: [  x_35 * x_12 ] = 0.0
 e125: [  x_35 * x_32 ] = 0.0
 e126: [  x_36 * x_13 ] = 0.0
 e127: [  x_36 * x_15 ] = 0.0
 e128: [  x_37 * x_14 ] = 0.0
 e129: [  x_38 * x_1 ] = 0.0
 e130: [  x_38 * x_34 ] = 0.0
 e131: [  x_39 * x_1 ] = 0.0
 e132: [  x_39 * x_3 ] = 0.0
 e133: [  x_39 * x_6 ] = 0.0
 e134: [  x_39 * x_9 ] = 0.0
 e135: [  x_39 * x_12 ] = 0.0
 e136: [  x_39 * x_18 ] = 0.0
 e137: [  x_39 * x_21 ] = 0.0
 e138: [  x_40 * x_21 ] = 0.0
 e139: [  x_40 * x_35 ] = 0.0
 e140: [  x_40 * x_36 ] = 0.0

Bounds
 x_1 <= 1.0
 x_2 <= 1.0
 x_3 <= 1.0
 x_4 <= 1.0
 x_5 <= 1.0
 x_6 <= 1.0
 x_7 <= 1.0
 x_8 <= 1.0
 x_9 <= 1.0
 x_10 <= 1.0
 x_11 <= 1.0
 x_12 <= 1.0
 x_13 <= 1.0
 x_14 <= 1.0
 x_15 <= 1.0
 x_16 <= 1.0
 x_17 <= 1.0
 x_18 <= 1.0
 x_19 <= 1.0
 x_20 <= 1.0
 x_21 <= 1.0
 x_22 <= 1.0
 x_23 <= 1.0
 x_24 <= 1.0
 x_25 <= 1.0
 x_26 <= 1.0
 x_27 <= 1.0
 x_28 <= 1.0
 x_29 <= 1.0
 x_30 <= 1.0
 x_31 <= 1.0
 x_32 <= 1.0
 x_33 <= 1.0
 x_34 <= 1.0
 x_35 <= 1.0
 x_36 <= 1.0
 x_37 <= 1.0
 x_38 <= 1.0
 x_39 <= 1.0
 x_40 <= 1.0

End